Version identifier: 22.1.0.0 | 2022-03-09 | 1a383f8ce
CPXPARAM_Threads                                 1
CPXPARAM_MIP_Strategy_VariableSelect             3
CPXPARAM_TimeLimit                               598.58948434399997
1 of 1 MIP starts provided solutions.
MIP start 'm1' defined initial solution with objective 187.0000.
Tried aggregator 1 time.
MIP Presolve eliminated 13 rows and 0 columns.
MIP Presolve modified 272 coefficients.
Reduced MIP has 1212 rows, 5000 columns, and 72748 nonzeros.
Reduced MIP has 5000 binaries, 0 generals, 0 SOSs, and 0 indicators.
Presolve time = 0.10 sec. (135.25 ticks)
Probing time = 0.02 sec. (15.04 ticks)
Tried aggregator 1 time.
Detecting symmetries...
MIP Presolve modified 14 coefficients.
Reduced MIP has 1212 rows, 5000 columns, and 73119 nonzeros.
Reduced MIP has 5000 binaries, 0 generals, 0 SOSs, and 0 indicators.
Presolve time = 0.07 sec. (83.65 ticks)
Probing time = 0.02 sec. (15.09 ticks)
Clique table members: 796.
MIP emphasis: balance optimality and feasibility.
MIP search method: dynamic search.
Parallel mode: none, using 1 thread.
Root relaxation solution time = 0.95 sec. (1142.77 ticks)

        Nodes                                         Cuts/
   Node  Left     Objective  IInf  Best Integer    Best Bound    ItCnt     Gap

*     0+    0                          187.0000    20100.0000              --- 
      0     0      200.0000   861      187.0000      200.0000     4246    6.95%
      0     0      200.0000   393      187.0000      Cuts: 13     7081    6.95%
      0     0      200.0000   469      187.0000      Cuts: 44    11926    6.95%
      0     0      200.0000   474      187.0000       Cuts: 3    13042    6.95%
Detecting symmetries...
      0     2      200.0000   241      187.0000      200.0000    13042    6.95%
Elapsed time = 27.34 sec. (31621.12 ticks, tree = 0.01 MB, solutions = 1)
      2     2      200.0000   546      187.0000      200.0000    16505    6.95%
      3     3      200.0000   623      187.0000      200.0000    20121    6.95%
      4     4      200.0000   523      187.0000      200.0000    25439    6.95%
      5     5      200.0000   510      187.0000      200.0000    25626    6.95%
      6     6      200.0000   517      187.0000      200.0000    25673    6.95%
      8     6      200.0000   425      187.0000      200.0000    30113    6.95%
     10     6    infeasible            187.0000      200.0000    31274    6.95%
     11     6      200.0000   381      187.0000      200.0000    35000    6.95%
     12     7      200.0000   381      187.0000      200.0000    37532    6.95%
     15     8      200.0000   391      187.0000      200.0000    39376    6.95%
Elapsed time = 36.08 sec. (40895.72 ticks, tree = 0.05 MB, solutions = 1)
     16     8      199.4537   633      187.0000      200.0000    45947    6.95%
     19    10      200.0000   402      187.0000      200.0000    50634    6.95%
     25    12      200.0000   385      187.0000      200.0000    55846    6.95%
     29    14      199.4775   581      187.0000      200.0000    65050    6.95%
     30    15      200.0000   388      187.0000      200.0000    65131    6.95%
     31    16      200.0000   471      187.0000      200.0000    68961    6.95%
     33    18      200.0000   454      187.0000      200.0000    70041    6.95%
     34    18      199.4611   592      187.0000      200.0000    77188    6.95%
     38    21      200.0000   406      187.0000      200.0000    81567    6.95%
     40    22      200.0000   425      187.0000      200.0000    85386    6.95%
Elapsed time = 49.64 sec. (54937.44 ticks, tree = 0.19 MB, solutions = 1)
     43    24      199.3974   597      187.0000      200.0000    93891    6.95%
     45    25      199.0000   576      187.0000      200.0000    99084    6.95%
     49    29      200.0000   392      187.0000      200.0000    99935    6.95%
     51    29      200.0000   397      187.0000      200.0000   105445    6.95%
     55    31      200.0000   367      187.0000      200.0000   106235    6.95%
     57    32      200.0000   358      187.0000      200.0000   112301    6.95%
     60    34      199.0000   454      187.0000      200.0000   118324    6.95%
     62    35      200.0000   353      187.0000      200.0000   122866    6.95%
     64    36      199.4639   652      187.0000      200.0000   127987    6.95%
     65    37      200.0000   365      187.0000      200.0000   136493    6.95%
Elapsed time = 63.73 sec. (69494.43 ticks, tree = 0.34 MB, solutions = 1)
     67    38      199.0000   568      187.0000      200.0000   143457    6.95%
     70    41      200.0000   362      187.0000      200.0000   144953    6.95%
     73    42      200.0000   336      187.0000      200.0000   147049    6.95%
     76    45      200.0000   423      187.0000      200.0000   150945    6.95%
     79    46      200.0000   351      187.0000      200.0000   157915    6.95%
     80    47      200.0000   378      187.0000      200.0000   159124    6.95%
     81    47      199.0000   482      187.0000      200.0000   164842    6.95%
     84    50      200.0000   336      187.0000      200.0000   166375    6.95%
     88    53      199.0495   412      187.0000      200.0000   172380    6.95%
     90    55      200.0000   325      187.0000      200.0000   172903    6.95%
Elapsed time = 82.31 sec. (87968.15 ticks, tree = 0.53 MB, solutions = 1)
     91    55      199.2438   528      187.0000      200.0000   178173    6.95%
     93    56      199.0000   532      187.0000      200.0000   183126    6.95%
     96    57      200.0000   338      187.0000      200.0000   185357    6.95%
     98    59      200.0000   439      187.0000      200.0000   188099    6.95%
    101    61      200.0000   318      187.0000      200.0000   190065    6.95%
    104    62      200.0000   317      187.0000      200.0000   194835    6.95%
    108    64      199.0588   414      187.0000      200.0000   199724    6.95%
    110    65      200.0000   346      187.0000      200.0000   202868    6.95%
    113    68      200.0000   315      187.0000      200.0000   205700    6.95%
    115    70      200.0000   304      187.0000      200.0000   208668    6.95%
Elapsed time = 93.00 sec. (98778.98 ticks, tree = 0.65 MB, solutions = 1)
    117    71      200.0000   323      187.0000      200.0000   214424    6.95%
    119    72      199.3168   487      187.0000      200.0000   226917    6.95%
    121    74      200.0000   417      187.0000      200.0000   230355    6.95%
    123    75      199.2016   380      187.0000      200.0000   234906    6.95%
    125    76      199.3188   500      187.0000      200.0000   240327    6.95%
    127    77      199.2592   528      187.0000      200.0000   247768    6.95%
    130    80      200.0000   297      187.0000      200.0000   251856    6.95%
    132    82      200.0000   270      187.0000      200.0000   254103    6.95%
    135    85      200.0000   339      187.0000      200.0000   259018    6.95%
    137    86      199.0000   459      187.0000      200.0000   264547    6.95%
Elapsed time = 105.88 sec. (111573.52 ticks, tree = 0.77 MB, solutions = 1)
    140    89      200.0000   339      187.0000      200.0000   267024    6.95%
    142    91      200.0000   332      187.0000      200.0000   270382    6.95%
    145    94      200.0000   335      187.0000      200.0000   272659    6.95%
    148    96      198.8209   474      187.0000      200.0000   277311    6.95%
    151    99      200.0000   306      187.0000      200.0000   279991    6.95%
    154   101      200.0000   440      187.0000      200.0000   287743    6.95%
    157   103      200.0000   329      187.0000      200.0000   291298    6.95%
    160   105      200.0000   319      187.0000      200.0000   297065    6.95%
    164   108      198.7612   439      187.0000      200.0000   302852    6.95%
    168   110      200.0000   347      187.0000      200.0000   308162    6.95%
Elapsed time = 121.26 sec. (126558.91 ticks, tree = 1.04 MB, solutions = 1)
    170   112      200.0000   284      187.0000      200.0000   313132    6.95%
    173   114      200.0000   292      187.0000      200.0000   318250    6.95%
    176   115      200.0000   272      187.0000      200.0000   322325    6.95%
    180   117      200.0000   379      187.0000      200.0000   326831    6.95%
    185   119      200.0000   315      187.0000      200.0000   330524    6.95%
    188   122      200.0000   280      187.0000      200.0000   333835    6.95%
    192   125      200.0000   262      187.0000      200.0000   337824    6.95%
    196   126      200.0000   283      187.0000      200.0000   343650    6.95%
    201   130      200.0000   299      187.0000      200.0000   346710    6.95%
    206   134      200.0000   223      187.0000      200.0000   348640    6.95%
Elapsed time = 134.58 sec. (139511.40 ticks, tree = 1.31 MB, solutions = 1)
    211   136      200.0000   280      187.0000      200.0000   356111    6.95%
    215   138      200.0000   264      187.0000      200.0000   360051    6.95%
    219   140      198.8291   286      187.0000      200.0000   363535    6.95%
    224   142      200.0000   284      187.0000      200.0000   366222    6.95%
    228   143      198.7551   378      187.0000      200.0000   370528    6.95%
    232   146      200.0000   232      187.0000      200.0000   374630    6.95%
    235   147      198.7590   316      187.0000      200.0000   379118    6.95%
    240   149      198.6364   315      187.0000      200.0000   382859    6.95%
    244   150      198.6322   393      187.0000      200.0000   389441    6.95%
    248   153      200.0000   306      187.0000      200.0000   392142    6.95%
Elapsed time = 146.58 sec. (150912.36 ticks, tree = 1.53 MB, solutions = 1)
    253   154      200.0000   256      187.0000      200.0000   397242    6.95%
    256   155      200.0000   217      187.0000      200.0000   403263    6.95%
    260   158      198.6250   395      187.0000      200.0000   407617    6.95%
    264   160      200.0000   247      187.0000      200.0000   412792    6.95%
    268   162      200.0000   295      187.0000      200.0000   418959    6.95%
    272   165      200.0000   228      187.0000      200.0000   422574    6.95%
    276   166      198.6774   410      187.0000      200.0000   427597    6.95%
    280   167      200.0000   235      187.0000      200.0000   429517    6.95%
    284   168      199.0000   359      187.0000      200.0000   435760    6.95%
    297   170      199.0000   268      187.0000      200.0000   454091    6.95%
Elapsed time = 162.47 sec. (165854.12 ticks, tree = 1.74 MB, solutions = 1)
    312   180      198.0000   337      187.0000      200.0000   469225    6.95%
    334   187      197.0000   211      187.0000      200.0000   482881    6.95%
    360   191      195.0000   258      187.0000      200.0000   498400    6.95%
    384   199    infeasible            187.0000      200.0000   520062    6.95%
    414   201    infeasible            187.0000      200.0000   545222    6.95%
    434   206      200.0000   285      187.0000      200.0000   564137    6.95%
    451   213      200.0000   307      187.0000      200.0000   578654    6.95%
    466   222      199.0000   186      187.0000      200.0000   596639    6.95%
    483   231      198.0000   221      187.0000      200.0000   614243    6.95%
    503   244      197.4062   262      187.0000      200.0000   632692    6.95%
Elapsed time = 206.19 sec. (205930.64 ticks, tree = 2.60 MB, solutions = 1)
    520   254      198.0000   185      187.0000      200.0000   651665    6.95%
    552   269      197.0000   188      187.0000      200.0000   669736    6.95%
    586   286    infeasible            187.0000      200.0000   691701    6.95%
    638   297      199.5085   375      187.0000      200.0000   712413    6.95%
    654   309      197.6534   337      187.0000      200.0000   727652    6.95%
    668   316      197.4259   322      187.0000      200.0000   747268    6.95%
    685   325      197.3500   240      187.0000      200.0000   764938    6.95%
    706   336      197.0000   220      187.0000      200.0000   787036    6.95%
    729   344      198.0000   291      187.0000      200.0000   805078    6.95%
    743   352      198.0000   321      187.0000      200.0000   823387    6.95%
Elapsed time = 250.02 sec. (245864.79 ticks, tree = 3.87 MB, solutions = 1)
    758   363      196.5000   307      187.0000      200.0000   839520    6.95%
    778   375      198.0000   279      187.0000      200.0000   858595    6.95%
    806   393      197.0000   175      187.0000      200.0000   878206    6.95%
    847   415      195.0000   157      187.0000      200.0000   900526    6.95%
    874   418      198.0000   303      187.0000      200.0000   918273    6.95%
    887   427      198.0000   345      187.0000      200.0000   935044    6.95%
    902   436      198.0000   201      187.0000      200.0000   953790    6.95%
    918   444      198.0000   226      187.0000      200.0000   973017    6.95%
    933   452      198.0000   257      187.0000      200.0000   996477    6.95%
    953   463      196.8333   344      187.0000      200.0000  1012426    6.95%
Elapsed time = 292.81 sec. (285217.56 ticks, tree = 5.17 MB, solutions = 1)
    978   474      196.0000   188      187.0000      200.0000  1026956    6.95%
   1005   484      196.0000   113      187.0000      200.0000  1048731    6.95%
   1040   489    infeasible            187.0000      200.0000  1073581    6.95%
   1078   505      195.0000   100      187.0000      200.0000  1092084    6.95%
   1096   515      198.0000   278      187.0000      200.0000  1107843    6.95%
   1113   526      196.0000   230      187.0000      200.0000  1121345    6.95%
   1133   532      198.0000   305      187.0000      200.0000  1144379    6.95%
   1149   546      198.0000   202      187.0000      200.0000  1159264    6.95%
   1170   551      198.0000   247      187.0000      200.0000  1170090    6.95%
   1193   557      197.0000   254      187.0000      200.0000  1184144    6.95%
Elapsed time = 335.61 sec. (324050.17 ticks, tree = 6.30 MB, solutions = 1)
   1216   562      197.0000   289      187.0000      200.0000  1202404    6.95%
   1245   570      197.0000   297      187.0000      200.0000  1216596    6.95%
   1267   574    infeasible            187.0000      200.0000  1237516    6.95%
   1288   580    infeasible            187.0000      200.0000  1260759    6.95%
   1313   586      195.0000   248      187.0000      200.0000  1285598    6.95%
   1336   588    infeasible            187.0000      200.0000  1308955    6.95%
   1347   592      198.0000   343      187.0000      200.0000  1328032    6.95%
   1364   592      198.0000   359      187.0000      200.0000  1350823    6.95%
   1379   601      198.0000   305      187.0000      200.0000  1364080    6.95%
   1392   608      198.0000   204      187.0000      200.0000  1380648    6.95%
Elapsed time = 378.53 sec. (363123.43 ticks, tree = 6.91 MB, solutions = 1)
   1409   617      197.0000   280      187.0000      200.0000  1402471    6.95%
   1424   624      198.0000   199      187.0000      200.0000  1424744    6.95%
   1440   632      197.0000   196      187.0000      200.0000  1447405    6.95%
   1459   642      197.2609   254      187.0000      200.0000  1472508    6.95%
   1478   649      197.0000   230      187.0000      200.0000  1497052    6.95%
   1505   657      196.6389   240      187.0000      200.0000  1512261    6.95%
   1527   670      195.0000   221      187.0000      200.0000  1533603    6.95%
   1534   673      199.5868   389      187.0000      200.0000  1544653    6.95%
   1537   675      199.5535   392      187.0000      200.0000  1553613    6.95%

Performing restart 1

Repeating presolve.
Tried aggregator 1 time.
MIP Presolve eliminated 0 rows and 192 columns.
MIP Presolve modified 13899 coefficients.
Reduced MIP has 1212 rows, 4808 columns, and 48510 nonzeros.
Reduced MIP has 4808 binaries, 0 generals, 0 SOSs, and 0 indicators.
Presolve time = 0.04 sec. (38.70 ticks)
Tried aggregator 1 time.
MIP Presolve eliminated 0 rows and 367 columns.
Reduced MIP has 1212 rows, 4441 columns, and 43211 nonzeros.
Reduced MIP has 4441 binaries, 0 generals, 0 SOSs, and 0 indicators.
Presolve time = 0.03 sec. (21.36 ticks)
Tried aggregator 1 time.
Reduced MIP has 1212 rows, 4441 columns, and 43211 nonzeros.
Reduced MIP has 4441 binaries, 0 generals, 0 SOSs, and 0 indicators.
Presolve time = 0.03 sec. (25.23 ticks)
Represolve time = 0.44 sec. (268.91 ticks)
   1538     0      199.8333   882      187.0000     Cuts: 277  1563988    6.86%
   1538     0      199.0000   919      187.0000     Cuts: 330  1568861    6.42%
   1538     0      199.0000   916      187.0000     Cuts: 236  1573894    6.42%
   1538     0      199.0000   937      187.0000     Cuts: 190  1577988    6.42%
   1538     0      199.0000   547      187.0000      Cuts: 16  1580550    6.42%
   1538     0      199.0000   619      187.0000     Cuts: 170  1583954    6.42%
   1538     0      199.0000   651      187.0000      Cuts: 15  1587175    6.42%
   1538     0      199.0000   400      187.0000      Cuts: 32  1589626    6.42%
   1538     0      199.0000   567      187.0000      Cuts: 99  1591901    6.42%
*  1538+    0                          189.0000      199.0000             5.29%
   1538     0        cutoff            189.0000      199.0000  1591901    5.29%
   1538     2      199.0000   327      189.0000      199.0000  1591901    5.29%
Elapsed time = 468.31 sec. (443999.74 ticks, tree = 0.01 MB, solutions = 2)
   1541     5      199.0000   718      189.0000      199.0000  1611718    5.29%
   1551    15      198.8116   508      189.0000      199.0000  1624672    5.29%
   1559    22      199.0000   364      189.0000      199.0000  1638750    5.29%
   1568    31      199.0000   304      189.0000      199.0000  1655147    5.29%
   1576    38      198.7647   330      189.0000      199.0000  1674996    5.29%
   1586    46      198.6842   454      189.0000      199.0000  1694702    5.29%
   1598    56      198.0000   418      189.0000      199.0000  1708139    5.29%
   1610    67      198.7857   319      189.0000      199.0000  1723208    5.29%
   1623    76      199.0000   332      189.0000      199.0000  1737115    5.29%
   1635    79    infeasible            189.0000      199.0000  1749350    5.29%
Elapsed time = 510.71 sec. (485578.01 ticks, tree = 0.84 MB, solutions = 2)
*  1638+   80                          190.0000      199.0000             4.74%
   1638    82      199.0000   192      190.0000      199.0000  1755492    4.74%
   1649    91      198.0000   322      190.0000      199.0000  1769754    4.74%
   1661   102      198.0000   390      190.0000      199.0000  1782181    4.74%
   1673   113      198.0000   307      190.0000      199.0000  1796432    4.74%
   1685   120      196.0000   275      190.0000      199.0000  1811930    4.74%
   1700   129      198.0000   343      190.0000      199.0000  1821489    4.74%
   1722   131      196.0000   244      190.0000      199.0000  1837101    4.74%
Starting limited solution polishing.
   1739   134      196.0000   285      190.0000      199.0000  1855951    4.74%
   1759   139    infeasible            190.0000      199.0000  1877228    4.74%
   1791   141    infeasible            190.0000      199.0000  1898696    4.74%
Elapsed time = 561.89 sec. (531840.62 ticks, tree = 1.58 MB, solutions = 3)
   1811   142        cutoff            190.0000      199.0000  1914105    4.74%
   1827   142        cutoff            190.0000      199.0000  1933323    4.74%
   1838   143      198.0000   374      190.0000      199.0000  1951425    4.74%
   1850   151    infeasible            190.0000      199.0000  1967649    4.74%
   1871   157      195.0000   227      190.0000      199.0000  1985700    4.74%
   1897   157      195.0000   234      190.0000      199.0000  2007250    4.74%
   1915   157    infeasible            190.0000      199.0000  2033746    4.74%
   1924   164      198.0000   361      190.0000      199.0000  2047601    4.74%

Clique cuts applied:  63
Mixed integer rounding cuts applied:  3
Zero-half cuts applied:  67
Gomory fractional cuts applied:  2

Root node processing (before b&c):
  Real time             =   27.17 sec. (31493.64 ticks)
Sequential b&c:
  Real time             =  571.43 sec. (533404.86 ticks)
                          ------------
Total (root+branch&cut) =  598.59 sec. (564898.50 ticks)
Primal:	190
Dual:	199
Status:	Feasible
Time:	598.59
Sequence:
	21
	6
	14
	10
	15
	9
	16
	6
	17
	4
	17
	7
	16
	8
	19
	2
	18
	6
	15
	10
	15
	7
	16
	6
	17
	4
	19
	7
	16
	6
	17
	4
	18
	8
	16
	6
	14
	13
	14
	6
	16
	8
	17
	5
	17
	6
	16
	8
	14
	11
	14
	8
	16
	8
	14
	10
	19
	0
	20
	8
	14
	8
	18
	2
	14
	6
	22
	1
	17
	10
	14
	6
	14
	9
	17
	2
	19
	6
	15
	6
	10
	14
	9
	6
	16
	8
	17
	3
	17
	8
	15
	6
	17
	3
	17
	6
	15
	6
	11
	15
	6
	12
	14
	6
	17
	5
	19
	6
	14
	10
	14
	6
	17
	5
	17
	8
	16
	6
	17
	4
	18
	8
	14
	6
	4
	14
	7
	12
	14
	8
	14
	6
	22
	0
	17
	12
	14
	8
	20
	0
	19
	10
	14
	6
	19
	3
	17
	6
	14
	4
	18
	6
	14
	12
	17
	1
	20
	6
	15
	10
	7
	14
	8
	16
	8
	6
	14
	10
	15
	9
	14
	10
	14
	8
	17
	5
	17
	6
	16
	8
	7
	2
	17
	8
	14
	9
	10
	14
	8
	20
